%chk=atom.chk
%nproc=4
%mem=4GB
#PBE1PBE/6-311+G(d,p) scf=tight

fubar

2 3
O    0.0000    0.0000    0.0000


